c description: Graph pigeonhole principle formula on fast_gnp_random_graph(20,10,0.9)
c generator: CNFgen (0.9.0)
c copyright: (C) 2012-2020 Massimo Lauria <massimo.lauria@uniroma1.it>
c url: https://massimolauria.net/cnfgen
c
p cnf 184 1626
1 2 3 4 5 6 7 8 9 10 0
11 12 13 14 15 16 17 18 19 0
20 21 22 23 24 25 26 27 28 29 0
30 31 32 33 34 35 36 37 38 0
39 40 41 42 43 44 45 46 47 48 0
49 50 51 52 53 54 55 56 0
57 58 59 60 61 62 63 64 65 66 0
67 68 69 70 71 72 73 74 0
75 76 77 78 79 80 81 82 83 0
84 85 86 87 88 89 90 91 92 0
93 94 95 96 97 98 99 100 101 0
102 103 104 105 106 107 108 109 110 0
111 112 113 114 115 116 117 118 0
119 120 121 122 123 124 125 126 127 128 0
129 130 131 132 133 134 135 136 0
137 138 139 140 141 142 143 144 145 146 0
147 148 149 150 151 152 153 154 0
155 156 157 158 159 160 161 162 163 164 0
165 166 167 168 169 170 171 172 173 174 0
175 176 177 178 179 180 181 182 183 184 0
-1 -11 0
-1 -20 0
-1 -30 0
-1 -39 0
-1 -49 0
-1 -57 0
-1 -75 0
-1 -84 0
-1 -93 0
-1 -102 0
-1 -119 0
-1 -129 0
-1 -137 0
-1 -147 0
-1 -155 0
-1 -165 0
-1 -175 0
-11 -20 0
-11 -30 0
-11 -39 0
-11 -49 0
-11 -57 0
-11 -75 0
-11 -84 0
-11 -93 0
-11 -102 0
-11 -119 0
-11 -129 0
-11 -137 0
-11 -147 0
-11 -155 0
-11 -165 0
-11 -175 0
-20 -30 0
-20 -39 0
-20 -49 0
-20 -57 0
-20 -75 0
-20 -84 0
-20 -93 0
-20 -102 0
-20 -119 0
-20 -129 0
-20 -137 0
-20 -147 0
-20 -155 0
-20 -165 0
-20 -175 0
-30 -39 0
-30 -49 0
-30 -57 0
-30 -75 0
-30 -84 0
-30 -93 0
-30 -102 0
-30 -119 0
-30 -129 0
-30 -137 0
-30 -147 0
-30 -155 0
-30 -165 0
-30 -175 0
-39 -49 0
-39 -57 0
-39 -75 0
-39 -84 0
-39 -93 0
-39 -102 0
-39 -119 0
-39 -129 0
-39 -137 0
-39 -147 0
-39 -155 0
-39 -165 0
-39 -175 0
-49 -57 0
-49 -75 0
-49 -84 0
-49 -93 0
-49 -102 0
-49 -119 0
-49 -129 0
-49 -137 0
-49 -147 0
-49 -155 0
-49 -165 0
-49 -175 0
-57 -75 0
-57 -84 0
-57 -93 0
-57 -102 0
-57 -119 0
-57 -129 0
-57 -137 0
-57 -147 0
-57 -155 0
-57 -165 0
-57 -175 0
-75 -84 0
-75 -93 0
-75 -102 0
-75 -119 0
-75 -129 0
-75 -137 0
-75 -147 0
-75 -155 0
-75 -165 0
-75 -175 0
-84 -93 0
-84 -102 0
-84 -119 0
-84 -129 0
-84 -137 0
-84 -147 0
-84 -155 0
-84 -165 0
-84 -175 0
-93 -102 0
-93 -119 0
-93 -129 0
-93 -137 0
-93 -147 0
-93 -155 0
-93 -165 0
-93 -175 0
-102 -119 0
-102 -129 0
-102 -137 0
-102 -147 0
-102 -155 0
-102 -165 0
-102 -175 0
-119 -129 0
-119 -137 0
-119 -147 0
-119 -155 0
-119 -165 0
-119 -175 0
-129 -137 0
-129 -147 0
-129 -155 0
-129 -165 0
-129 -175 0
-137 -147 0
-137 -155 0
-137 -165 0
-137 -175 0
-147 -155 0
-147 -165 0
-147 -175 0
-155 -165 0
-155 -175 0
-165 -175 0
-2 -12 0
-2 -21 0
-2 -31 0
-2 -40 0
-2 -50 0
-2 -58 0
-2 -67 0
-2 -76 0
-2 -103 0
-2 -111 0
-2 -120 0
-2 -130 0
-2 -138 0
-2 -148 0
-2 -156 0
-2 -166 0
-2 -176 0
-12 -21 0
-12 -31 0
-12 -40 0
-12 -50 0
-12 -58 0
-12 -67 0
-12 -76 0
-12 -103 0
-12 -111 0
-12 -120 0
-12 -130 0
-12 -138 0
-12 -148 0
-12 -156 0
-12 -166 0
-12 -176 0
-21 -31 0
-21 -40 0
-21 -50 0
-21 -58 0
-21 -67 0
-21 -76 0
-21 -103 0
-21 -111 0
-21 -120 0
-21 -130 0
-21 -138 0
-21 -148 0
-21 -156 0
-21 -166 0
-21 -176 0
-31 -40 0
-31 -50 0
-31 -58 0
-31 -67 0
-31 -76 0
-31 -103 0
-31 -111 0
-31 -120 0
-31 -130 0
-31 -138 0
-31 -148 0
-31 -156 0
-31 -166 0
-31 -176 0
-40 -50 0
-40 -58 0
-40 -67 0
-40 -76 0
-40 -103 0
-40 -111 0
-40 -120 0
-40 -130 0
-40 -138 0
-40 -148 0
-40 -156 0
-40 -166 0
-40 -176 0
-50 -58 0
-50 -67 0
-50 -76 0
-50 -103 0
-50 -111 0
-50 -120 0
-50 -130 0
-50 -138 0
-50 -148 0
-50 -156 0
-50 -166 0
-50 -176 0
-58 -67 0
-58 -76 0
-58 -103 0
-58 -111 0
-58 -120 0
-58 -130 0
-58 -138 0
-58 -148 0
-58 -156 0
-58 -166 0
-58 -176 0
-67 -76 0
-67 -103 0
-67 -111 0
-67 -120 0
-67 -130 0
-67 -138 0
-67 -148 0
-67 -156 0
-67 -166 0
-67 -176 0
-76 -103 0
-76 -111 0
-76 -120 0
-76 -130 0
-76 -138 0
-76 -148 0
-76 -156 0
-76 -166 0
-76 -176 0
-103 -111 0
-103 -120 0
-103 -130 0
-103 -138 0
-103 -148 0
-103 -156 0
-103 -166 0
-103 -176 0
-111 -120 0
-111 -130 0
-111 -138 0
-111 -148 0
-111 -156 0
-111 -166 0
-111 -176 0
-120 -130 0
-120 -138 0
-120 -148 0
-120 -156 0
-120 -166 0
-120 -176 0
-130 -138 0
-130 -148 0
-130 -156 0
-130 -166 0
-130 -176 0
-138 -148 0
-138 -156 0
-138 -166 0
-138 -176 0
-148 -156 0
-148 -166 0
-148 -176 0
-156 -166 0
-156 -176 0
-166 -176 0
-3 -13 0
-3 -22 0
-3 -32 0
-3 -41 0
-3 -51 0
-3 -59 0
-3 -68 0
-3 -77 0
-3 -85 0
-3 -94 0
-3 -104 0
-3 -112 0
-3 -121 0
-3 -131 0
-3 -139 0
-3 -157 0
-3 -167 0
-3 -177 0
-13 -22 0
-13 -32 0
-13 -41 0
-13 -51 0
-13 -59 0
-13 -68 0
-13 -77 0
-13 -85 0
-13 -94 0
-13 -104 0
-13 -112 0
-13 -121 0
-13 -131 0
-13 -139 0
-13 -157 0
-13 -167 0
-13 -177 0
-22 -32 0
-22 -41 0
-22 -51 0
-22 -59 0
-22 -68 0
-22 -77 0
-22 -85 0
-22 -94 0
-22 -104 0
-22 -112 0
-22 -121 0
-22 -131 0
-22 -139 0
-22 -157 0
-22 -167 0
-22 -177 0
-32 -41 0
-32 -51 0
-32 -59 0
-32 -68 0
-32 -77 0
-32 -85 0
-32 -94 0
-32 -104 0
-32 -112 0
-32 -121 0
-32 -131 0
-32 -139 0
-32 -157 0
-32 -167 0
-32 -177 0
-41 -51 0
-41 -59 0
-41 -68 0
-41 -77 0
-41 -85 0
-41 -94 0
-41 -104 0
-41 -112 0
-41 -121 0
-41 -131 0
-41 -139 0
-41 -157 0
-41 -167 0
-41 -177 0
-51 -59 0
-51 -68 0
-51 -77 0
-51 -85 0
-51 -94 0
-51 -104 0
-51 -112 0
-51 -121 0
-51 -131 0
-51 -139 0
-51 -157 0
-51 -167 0
-51 -177 0
-59 -68 0
-59 -77 0
-59 -85 0
-59 -94 0
-59 -104 0
-59 -112 0
-59 -121 0
-59 -131 0
-59 -139 0
-59 -157 0
-59 -167 0
-59 -177 0
-68 -77 0
-68 -85 0
-68 -94 0
-68 -104 0
-68 -112 0
-68 -121 0
-68 -131 0
-68 -139 0
-68 -157 0
-68 -167 0
-68 -177 0
-77 -85 0
-77 -94 0
-77 -104 0
-77 -112 0
-77 -121 0
-77 -131 0
-77 -139 0
-77 -157 0
-77 -167 0
-77 -177 0
-85 -94 0
-85 -104 0
-85 -112 0
-85 -121 0
-85 -131 0
-85 -139 0
-85 -157 0
-85 -167 0
-85 -177 0
-94 -104 0
-94 -112 0
-94 -121 0
-94 -131 0
-94 -139 0
-94 -157 0
-94 -167 0
-94 -177 0
-104 -112 0
-104 -121 0
-104 -131 0
-104 -139 0
-104 -157 0
-104 -167 0
-104 -177 0
-112 -121 0
-112 -131 0
-112 -139 0
-112 -157 0
-112 -167 0
-112 -177 0
-121 -131 0
-121 -139 0
-121 -157 0
-121 -167 0
-121 -177 0
-131 -139 0
-131 -157 0
-131 -167 0
-131 -177 0
-139 -157 0
-139 -167 0
-139 -177 0
-157 -167 0
-157 -177 0
-167 -177 0
-4 -23 0
-4 -33 0
-4 -42 0
-4 -52 0
-4 -60 0
-4 -78 0
-4 -86 0
-4 -95 0
-4 -105 0
-4 -113 0
-4 -122 0
-4 -132 0
-4 -140 0
-4 -149 0
-4 -158 0
-4 -168 0
-4 -178 0
-23 -33 0
-23 -42 0
-23 -52 0
-23 -60 0
-23 -78 0
-23 -86 0
-23 -95 0
-23 -105 0
-23 -113 0
-23 -122 0
-23 -132 0
-23 -140 0
-23 -149 0
-23 -158 0
-23 -168 0
-23 -178 0
-33 -42 0
-33 -52 0
-33 -60 0
-33 -78 0
-33 -86 0
-33 -95 0
-33 -105 0
-33 -113 0
-33 -122 0
-33 -132 0
-33 -140 0
-33 -149 0
-33 -158 0
-33 -168 0
-33 -178 0
-42 -52 0
-42 -60 0
-42 -78 0
-42 -86 0
-42 -95 0
-42 -105 0
-42 -113 0
-42 -122 0
-42 -132 0
-42 -140 0
-42 -149 0
-42 -158 0
-42 -168 0
-42 -178 0
-52 -60 0
-52 -78 0
-52 -86 0
-52 -95 0
-52 -105 0
-52 -113 0
-52 -122 0
-52 -132 0
-52 -140 0
-52 -149 0
-52 -158 0
-52 -168 0
-52 -178 0
-60 -78 0
-60 -86 0
-60 -95 0
-60 -105 0
-60 -113 0
-60 -122 0
-60 -132 0
-60 -140 0
-60 -149 0
-60 -158 0
-60 -168 0
-60 -178 0
-78 -86 0
-78 -95 0
-78 -105 0
-78 -113 0
-78 -122 0
-78 -132 0
-78 -140 0
-78 -149 0
-78 -158 0
-78 -168 0
-78 -178 0
-86 -95 0
-86 -105 0
-86 -113 0
-86 -122 0
-86 -132 0
-86 -140 0
-86 -149 0
-86 -158 0
-86 -168 0
-86 -178 0
-95 -105 0
-95 -113 0
-95 -122 0
-95 -132 0
-95 -140 0
-95 -149 0
-95 -158 0
-95 -168 0
-95 -178 0
-105 -113 0
-105 -122 0
-105 -132 0
-105 -140 0
-105 -149 0
-105 -158 0
-105 -168 0
-105 -178 0
-113 -122 0
-113 -132 0
-113 -140 0
-113 -149 0
-113 -158 0
-113 -168 0
-113 -178 0
-122 -132 0
-122 -140 0
-122 -149 0
-122 -158 0
-122 -168 0
-122 -178 0
-132 -140 0
-132 -149 0
-132 -158 0
-132 -168 0
-132 -178 0
-140 -149 0
-140 -158 0
-140 -168 0
-140 -178 0
-149 -158 0
-149 -168 0
-149 -178 0
-158 -168 0
-158 -178 0
-168 -178 0
-5 -14 0
-5 -24 0
-5 -34 0
-5 -43 0
-5 -53 0
-5 -61 0
-5 -69 0
-5 -79 0
-5 -87 0
-5 -96 0
-5 -106 0
-5 -114 0
-5 -123 0
-5 -133 0
-5 -141 0
-5 -150 0
-5 -159 0
-5 -169 0
-5 -179 0
-14 -24 0
-14 -34 0
-14 -43 0
-14 -53 0
-14 -61 0
-14 -69 0
-14 -79 0
-14 -87 0
-14 -96 0
-14 -106 0
-14 -114 0
-14 -123 0
-14 -133 0
-14 -141 0
-14 -150 0
-14 -159 0
-14 -169 0
-14 -179 0
-24 -34 0
-24 -43 0
-24 -53 0
-24 -61 0
-24 -69 0
-24 -79 0
-24 -87 0
-24 -96 0
-24 -106 0
-24 -114 0
-24 -123 0
-24 -133 0
-24 -141 0
-24 -150 0
-24 -159 0
-24 -169 0
-24 -179 0
-34 -43 0
-34 -53 0
-34 -61 0
-34 -69 0
-34 -79 0
-34 -87 0
-34 -96 0
-34 -106 0
-34 -114 0
-34 -123 0
-34 -133 0
-34 -141 0
-34 -150 0
-34 -159 0
-34 -169 0
-34 -179 0
-43 -53 0
-43 -61 0
-43 -69 0
-43 -79 0
-43 -87 0
-43 -96 0
-43 -106 0
-43 -114 0
-43 -123 0
-43 -133 0
-43 -141 0
-43 -150 0
-43 -159 0
-43 -169 0
-43 -179 0
-53 -61 0
-53 -69 0
-53 -79 0
-53 -87 0
-53 -96 0
-53 -106 0
-53 -114 0
-53 -123 0
-53 -133 0
-53 -141 0
-53 -150 0
-53 -159 0
-53 -169 0
-53 -179 0
-61 -69 0
-61 -79 0
-61 -87 0
-61 -96 0
-61 -106 0
-61 -114 0
-61 -123 0
-61 -133 0
-61 -141 0
-61 -150 0
-61 -159 0
-61 -169 0
-61 -179 0
-69 -79 0
-69 -87 0
-69 -96 0
-69 -106 0
-69 -114 0
-69 -123 0
-69 -133 0
-69 -141 0
-69 -150 0
-69 -159 0
-69 -169 0
-69 -179 0
-79 -87 0
-79 -96 0
-79 -106 0
-79 -114 0
-79 -123 0
-79 -133 0
-79 -141 0
-79 -150 0
-79 -159 0
-79 -169 0
-79 -179 0
-87 -96 0
-87 -106 0
-87 -114 0
-87 -123 0
-87 -133 0
-87 -141 0
-87 -150 0
-87 -159 0
-87 -169 0
-87 -179 0
-96 -106 0
-96 -114 0
-96 -123 0
-96 -133 0
-96 -141 0
-96 -150 0
-96 -159 0
-96 -169 0
-96 -179 0
-106 -114 0
-106 -123 0
-106 -133 0
-106 -141 0
-106 -150 0
-106 -159 0
-106 -169 0
-106 -179 0
-114 -123 0
-114 -133 0
-114 -141 0
-114 -150 0
-114 -159 0
-114 -169 0
-114 -179 0
-123 -133 0
-123 -141 0
-123 -150 0
-123 -159 0
-123 -169 0
-123 -179 0
-133 -141 0
-133 -150 0
-133 -159 0
-133 -169 0
-133 -179 0
-141 -150 0
-141 -159 0
-141 -169 0
-141 -179 0
-150 -159 0
-150 -169 0
-150 -179 0
-159 -169 0
-159 -179 0
-169 -179 0
-6 -15 0
-6 -25 0
-6 -35 0
-6 -44 0
-6 -62 0
-6 -70 0
-6 -80 0
-6 -88 0
-6 -97 0
-6 -107 0
-6 -115 0
-6 -124 0
-6 -134 0
-6 -142 0
-6 -151 0
-6 -160 0
-6 -170 0
-6 -180 0
-15 -25 0
-15 -35 0
-15 -44 0
-15 -62 0
-15 -70 0
-15 -80 0
-15 -88 0
-15 -97 0
-15 -107 0
-15 -115 0
-15 -124 0
-15 -134 0
-15 -142 0
-15 -151 0
-15 -160 0
-15 -170 0
-15 -180 0
-25 -35 0
-25 -44 0
-25 -62 0
-25 -70 0
-25 -80 0
-25 -88 0
-25 -97 0
-25 -107 0
-25 -115 0
-25 -124 0
-25 -134 0
-25 -142 0
-25 -151 0
-25 -160 0
-25 -170 0
-25 -180 0
-35 -44 0
-35 -62 0
-35 -70 0
-35 -80 0
-35 -88 0
-35 -97 0
-35 -107 0
-35 -115 0
-35 -124 0
-35 -134 0
-35 -142 0
-35 -151 0
-35 -160 0
-35 -170 0
-35 -180 0
-44 -62 0
-44 -70 0
-44 -80 0
-44 -88 0
-44 -97 0
-44 -107 0
-44 -115 0
-44 -124 0
-44 -134 0
-44 -142 0
-44 -151 0
-44 -160 0
-44 -170 0
-44 -180 0
-62 -70 0
-62 -80 0
-62 -88 0
-62 -97 0
-62 -107 0
-62 -115 0
-62 -124 0
-62 -134 0
-62 -142 0
-62 -151 0
-62 -160 0
-62 -170 0
-62 -180 0
-70 -80 0
-70 -88 0
-70 -97 0
-70 -107 0
-70 -115 0
-70 -124 0
-70 -134 0
-70 -142 0
-70 -151 0
-70 -160 0
-70 -170 0
-70 -180 0
-80 -88 0
-80 -97 0
-80 -107 0
-80 -115 0
-80 -124 0
-80 -134 0
-80 -142 0
-80 -151 0
-80 -160 0
-80 -170 0
-80 -180 0
-88 -97 0
-88 -107 0
-88 -115 0
-88 -124 0
-88 -134 0
-88 -142 0
-88 -151 0
-88 -160 0
-88 -170 0
-88 -180 0
-97 -107 0
-97 -115 0
-97 -124 0
-97 -134 0
-97 -142 0
-97 -151 0
-97 -160 0
-97 -170 0
-97 -180 0
-107 -115 0
-107 -124 0
-107 -134 0
-107 -142 0
-107 -151 0
-107 -160 0
-107 -170 0
-107 -180 0
-115 -124 0
-115 -134 0
-115 -142 0
-115 -151 0
-115 -160 0
-115 -170 0
-115 -180 0
-124 -134 0
-124 -142 0
-124 -151 0
-124 -160 0
-124 -170 0
-124 -180 0
-134 -142 0
-134 -151 0
-134 -160 0
-134 -170 0
-134 -180 0
-142 -151 0
-142 -160 0
-142 -170 0
-142 -180 0
-151 -160 0
-151 -170 0
-151 -180 0
-160 -170 0
-160 -180 0
-170 -180 0
-7 -16 0
-7 -26 0
-7 -45 0
-7 -54 0
-7 -63 0
-7 -71 0
-7 -89 0
-7 -98 0
-7 -108 0
-7 -116 0
-7 -125 0
-7 -135 0
-7 -143 0
-7 -152 0
-7 -161 0
-7 -171 0
-7 -181 0
-16 -26 0
-16 -45 0
-16 -54 0
-16 -63 0
-16 -71 0
-16 -89 0
-16 -98 0
-16 -108 0
-16 -116 0
-16 -125 0
-16 -135 0
-16 -143 0
-16 -152 0
-16 -161 0
-16 -171 0
-16 -181 0
-26 -45 0
-26 -54 0
-26 -63 0
-26 -71 0
-26 -89 0
-26 -98 0
-26 -108 0
-26 -116 0
-26 -125 0
-26 -135 0
-26 -143 0
-26 -152 0
-26 -161 0
-26 -171 0
-26 -181 0
-45 -54 0
-45 -63 0
-45 -71 0
-45 -89 0
-45 -98 0
-45 -108 0
-45 -116 0
-45 -125 0
-45 -135 0
-45 -143 0
-45 -152 0
-45 -161 0
-45 -171 0
-45 -181 0
-54 -63 0
-54 -71 0
-54 -89 0
-54 -98 0
-54 -108 0
-54 -116 0
-54 -125 0
-54 -135 0
-54 -143 0
-54 -152 0
-54 -161 0
-54 -171 0
-54 -181 0
-63 -71 0
-63 -89 0
-63 -98 0
-63 -108 0
-63 -116 0
-63 -125 0
-63 -135 0
-63 -143 0
-63 -152 0
-63 -161 0
-63 -171 0
-63 -181 0
-71 -89 0
-71 -98 0
-71 -108 0
-71 -116 0
-71 -125 0
-71 -135 0
-71 -143 0
-71 -152 0
-71 -161 0
-71 -171 0
-71 -181 0
-89 -98 0
-89 -108 0
-89 -116 0
-89 -125 0
-89 -135 0
-89 -143 0
-89 -152 0
-89 -161 0
-89 -171 0
-89 -181 0
-98 -108 0
-98 -116 0
-98 -125 0
-98 -135 0
-98 -143 0
-98 -152 0
-98 -161 0
-98 -171 0
-98 -181 0
-108 -116 0
-108 -125 0
-108 -135 0
-108 -143 0
-108 -152 0
-108 -161 0
-108 -171 0
-108 -181 0
-116 -125 0
-116 -135 0
-116 -143 0
-116 -152 0
-116 -161 0
-116 -171 0
-116 -181 0
-125 -135 0
-125 -143 0
-125 -152 0
-125 -161 0
-125 -171 0
-125 -181 0
-135 -143 0
-135 -152 0
-135 -161 0
-135 -171 0
-135 -181 0
-143 -152 0
-143 -161 0
-143 -171 0
-143 -181 0
-152 -161 0
-152 -171 0
-152 -181 0
-161 -171 0
-161 -181 0
-171 -181 0
-8 -17 0
-8 -27 0
-8 -36 0
-8 -46 0
-8 -55 0
-8 -64 0
-8 -72 0
-8 -81 0
-8 -90 0
-8 -99 0
-8 -109 0
-8 -117 0
-8 -126 0
-8 -144 0
-8 -153 0
-8 -162 0
-8 -172 0
-8 -182 0
-17 -27 0
-17 -36 0
-17 -46 0
-17 -55 0
-17 -64 0
-17 -72 0
-17 -81 0
-17 -90 0
-17 -99 0
-17 -109 0
-17 -117 0
-17 -126 0
-17 -144 0
-17 -153 0
-17 -162 0
-17 -172 0
-17 -182 0
-27 -36 0
-27 -46 0
-27 -55 0
-27 -64 0
-27 -72 0
-27 -81 0
-27 -90 0
-27 -99 0
-27 -109 0
-27 -117 0
-27 -126 0
-27 -144 0
-27 -153 0
-27 -162 0
-27 -172 0
-27 -182 0
-36 -46 0
-36 -55 0
-36 -64 0
-36 -72 0
-36 -81 0
-36 -90 0
-36 -99 0
-36 -109 0
-36 -117 0
-36 -126 0
-36 -144 0
-36 -153 0
-36 -162 0
-36 -172 0
-36 -182 0
-46 -55 0
-46 -64 0
-46 -72 0
-46 -81 0
-46 -90 0
-46 -99 0
-46 -109 0
-46 -117 0
-46 -126 0
-46 -144 0
-46 -153 0
-46 -162 0
-46 -172 0
-46 -182 0
-55 -64 0
-55 -72 0
-55 -81 0
-55 -90 0
-55 -99 0
-55 -109 0
-55 -117 0
-55 -126 0
-55 -144 0
-55 -153 0
-55 -162 0
-55 -172 0
-55 -182 0
-64 -72 0
-64 -81 0
-64 -90 0
-64 -99 0
-64 -109 0
-64 -117 0
-64 -126 0
-64 -144 0
-64 -153 0
-64 -162 0
-64 -172 0
-64 -182 0
-72 -81 0
-72 -90 0
-72 -99 0
-72 -109 0
-72 -117 0
-72 -126 0
-72 -144 0
-72 -153 0
-72 -162 0
-72 -172 0
-72 -182 0
-81 -90 0
-81 -99 0
-81 -109 0
-81 -117 0
-81 -126 0
-81 -144 0
-81 -153 0
-81 -162 0
-81 -172 0
-81 -182 0
-90 -99 0
-90 -109 0
-90 -117 0
-90 -126 0
-90 -144 0
-90 -153 0
-90 -162 0
-90 -172 0
-90 -182 0
-99 -109 0
-99 -117 0
-99 -126 0
-99 -144 0
-99 -153 0
-99 -162 0
-99 -172 0
-99 -182 0
-109 -117 0
-109 -126 0
-109 -144 0
-109 -153 0
-109 -162 0
-109 -172 0
-109 -182 0
-117 -126 0
-117 -144 0
-117 -153 0
-117 -162 0
-117 -172 0
-117 -182 0
-126 -144 0
-126 -153 0
-126 -162 0
-126 -172 0
-126 -182 0
-144 -153 0
-144 -162 0
-144 -172 0
-144 -182 0
-153 -162 0
-153 -172 0
-153 -182 0
-162 -172 0
-162 -182 0
-172 -182 0
-9 -18 0
-9 -28 0
-9 -37 0
-9 -47 0
-9 -56 0
-9 -65 0
-9 -73 0
-9 -82 0
-9 -91 0
-9 -100 0
-9 -110 0
-9 -118 0
-9 -127 0
-9 -136 0
-9 -145 0
-9 -163 0
-9 -173 0
-9 -183 0
-18 -28 0
-18 -37 0
-18 -47 0
-18 -56 0
-18 -65 0
-18 -73 0
-18 -82 0
-18 -91 0
-18 -100 0
-18 -110 0
-18 -118 0
-18 -127 0
-18 -136 0
-18 -145 0
-18 -163 0
-18 -173 0
-18 -183 0
-28 -37 0
-28 -47 0
-28 -56 0
-28 -65 0
-28 -73 0
-28 -82 0
-28 -91 0
-28 -100 0
-28 -110 0
-28 -118 0
-28 -127 0
-28 -136 0
-28 -145 0
-28 -163 0
-28 -173 0
-28 -183 0
-37 -47 0
-37 -56 0
-37 -65 0
-37 -73 0
-37 -82 0
-37 -91 0
-37 -100 0
-37 -110 0
-37 -118 0
-37 -127 0
-37 -136 0
-37 -145 0
-37 -163 0
-37 -173 0
-37 -183 0
-47 -56 0
-47 -65 0
-47 -73 0
-47 -82 0
-47 -91 0
-47 -100 0
-47 -110 0
-47 -118 0
-47 -127 0
-47 -136 0
-47 -145 0
-47 -163 0
-47 -173 0
-47 -183 0
-56 -65 0
-56 -73 0
-56 -82 0
-56 -91 0
-56 -100 0
-56 -110 0
-56 -118 0
-56 -127 0
-56 -136 0
-56 -145 0
-56 -163 0
-56 -173 0
-56 -183 0
-65 -73 0
-65 -82 0
-65 -91 0
-65 -100 0
-65 -110 0
-65 -118 0
-65 -127 0
-65 -136 0
-65 -145 0
-65 -163 0
-65 -173 0
-65 -183 0
-73 -82 0
-73 -91 0
-73 -100 0
-73 -110 0
-73 -118 0
-73 -127 0
-73 -136 0
-73 -145 0
-73 -163 0
-73 -173 0
-73 -183 0
-82 -91 0
-82 -100 0
-82 -110 0
-82 -118 0
-82 -127 0
-82 -136 0
-82 -145 0
-82 -163 0
-82 -173 0
-82 -183 0
-91 -100 0
-91 -110 0
-91 -118 0
-91 -127 0
-91 -136 0
-91 -145 0
-91 -163 0
-91 -173 0
-91 -183 0
-100 -110 0
-100 -118 0
-100 -127 0
-100 -136 0
-100 -145 0
-100 -163 0
-100 -173 0
-100 -183 0
-110 -118 0
-110 -127 0
-110 -136 0
-110 -145 0
-110 -163 0
-110 -173 0
-110 -183 0
-118 -127 0
-118 -136 0
-118 -145 0
-118 -163 0
-118 -173 0
-118 -183 0
-127 -136 0
-127 -145 0
-127 -163 0
-127 -173 0
-127 -183 0
-136 -145 0
-136 -163 0
-136 -173 0
-136 -183 0
-145 -163 0
-145 -173 0
-145 -183 0
-163 -173 0
-163 -183 0
-173 -183 0
-10 -19 0
-10 -29 0
-10 -38 0
-10 -48 0
-10 -66 0
-10 -74 0
-10 -83 0
-10 -92 0
-10 -101 0
-10 -128 0
-10 -146 0
-10 -154 0
-10 -164 0
-10 -174 0
-10 -184 0
-19 -29 0
-19 -38 0
-19 -48 0
-19 -66 0
-19 -74 0
-19 -83 0
-19 -92 0
-19 -101 0
-19 -128 0
-19 -146 0
-19 -154 0
-19 -164 0
-19 -174 0
-19 -184 0
-29 -38 0
-29 -48 0
-29 -66 0
-29 -74 0
-29 -83 0
-29 -92 0
-29 -101 0
-29 -128 0
-29 -146 0
-29 -154 0
-29 -164 0
-29 -174 0
-29 -184 0
-38 -48 0
-38 -66 0
-38 -74 0
-38 -83 0
-38 -92 0
-38 -101 0
-38 -128 0
-38 -146 0
-38 -154 0
-38 -164 0
-38 -174 0
-38 -184 0
-48 -66 0
-48 -74 0
-48 -83 0
-48 -92 0
-48 -101 0
-48 -128 0
-48 -146 0
-48 -154 0
-48 -164 0
-48 -174 0
-48 -184 0
-66 -74 0
-66 -83 0
-66 -92 0
-66 -101 0
-66 -128 0
-66 -146 0
-66 -154 0
-66 -164 0
-66 -174 0
-66 -184 0
-74 -83 0
-74 -92 0
-74 -101 0
-74 -128 0
-74 -146 0
-74 -154 0
-74 -164 0
-74 -174 0
-74 -184 0
-83 -92 0
-83 -101 0
-83 -128 0
-83 -146 0
-83 -154 0
-83 -164 0
-83 -174 0
-83 -184 0
-92 -101 0
-92 -128 0
-92 -146 0
-92 -154 0
-92 -164 0
-92 -174 0
-92 -184 0
-101 -128 0
-101 -146 0
-101 -154 0
-101 -164 0
-101 -174 0
-101 -184 0
-128 -146 0
-128 -154 0
-128 -164 0
-128 -174 0
-128 -184 0
-146 -154 0
-146 -164 0
-146 -174 0
-146 -184 0
-154 -164 0
-154 -174 0
-154 -184 0
-164 -174 0
-164 -184 0
-174 -184 0